p wcnf 101 202 203 
1 78 -66 0 
1 94 69 0 
1 -93 24 0 
1 -68 -33 0 
1 -34 24 0 
1 -51 -63 0 
1 -40 -101 0 
1 15 -99 0 
1 60 53 0 
1 9 -2 0 
1 -64 -89 0 
1 -70 -25 0 
1 58 -9 0 
1 -79 38 0 
1 -82 -98 0 
1 49 -15 0 
1 38 -4 0 
1 52 32 0 
1 -75 -67 0 
1 -13 -74 0 
1 -18 44 0 
1 -53 -89 0 
1 10 61 0 
1 -8 -49 0 
1 -19 -39 0 
1 25 -89 0 
1 -51 -75 0 
1 84 6 0 
1 -22 8 0 
1 60 -19 0 
1 57 -25 0 
1 94 -95 0 
1 45 99 0 
1 52 72 0 
1 33 -50 0 
1 19 -5 0 
1 38 -18 0 
1 -75 84 0 
1 -67 -86 0 
1 42 93 0 
1 -97 24 0 
1 -47 -29 0 
1 38 68 0 
1 91 57 0 
1 -22 100 0 
1 61 -64 0 
1 1 65 0 
1 41 93 0 
1 82 38 0 
1 20 63 0 
1 57 -27 0 
1 -45 23 0 
1 -74 88 0 
1 -56 51 0 
1 -91 31 0 
1 -61 -77 0 
1 75 99 0 
1 -42 -10 0 
1 3 -88 0 
1 64 76 0 
1 12 6 0 
1 85 50 0 
1 -83 80 0 
1 7 -8 0 
1 -20 -60 0 
1 -65 -2 0 
1 81 59 0 
1 -44 -37 0 
1 -69 94 0 
1 -64 23 0 
1 1 65 0 
1 49 52 0 
1 14 87 0 
1 -63 97 0 
1 9 21 0 
1 10 -24 0 
1 11 -48 0 
1 -27 7 0 
1 79 -84 0 
1 93 -84 0 
1 74 39 0 
1 -78 -29 0 
1 22 67 0 
1 17 93 0 
1 88 -43 0 
1 -89 -74 0 
1 -34 -58 0 
1 -99 95 0 
1 -83 35 0 
1 -19 -10 0 
1 -10 -85 0 
1 -45 76 0 
1 54 32 0 
1 43 80 0 
1 18 56 0 
1 -52 -24 0 
1 98 -18 0 
1 -80 -35 0 
1 66 -85 0 
1 36 -30 0 
1 98 32 0 
1 -21 44 0 
1 -36 -86 0 
1 -57 -8 0 
1 93 12 0 
1 48 93 0 
1 -83 80 0 
1 -11 -14 0 
1 73 -95 0 
1 -61 74 0 
1 -28 19 0 
1 34 -21 0 
1 -87 -13 0 
1 96 -8 0 
1 -1 -77 0 
1 -86 44 0 
1 30 -23 0 
1 -74 -30 0 
1 -45 -89 0 
1 -4 47 0 
1 51 49 0 
1 30 57 0 
1 -56 -82 0 
1 -21 17 0 
1 80 87 0 
1 -57 -99 0 
1 62 -60 0 
1 15 28 0 
1 -45 -5 0 
1 36 -63 0 
1 -23 -20 0 
1 -46 -53 0 
1 92 95 0 
1 82 76 0 
1 -19 -72 0 
1 -10 -21 0 
1 2 67 0 
1 -17 -39 0 
1 36 33 0 
1 -40 11 0 
1 2 -59 0 
1 -16 -9 0 
1 -29 -54 0 
1 -51 -60 0 
1 99 55 0 
1 60 -14 0 
1 26 71 0 
1 5 -46 0 
1 58 75 0 
1 54 -2 0 
1 54 -47 0 
1 92 -60 0 
1 1 63 0 
1 -39 -57 0 
1 -45 100 0 
1 4 65 0 
1 -99 -37 0 
1 -70 58 0 
1 84 -92 0 
1 87 4 0 
1 37 -39 0 
1 75 39 0 
1 -87 -32 0 
1 44 -101 0 
1 44 81 0 
1 -18 77 0 
1 58 96 0 
1 -13 -78 0 
1 -2 100 0 
1 -24 77 0 
1 58 -48 0 
1 -1 36 0 
1 92 79 0 
1 -47 67 0 
1 -66 -64 0 
1 -99 27 0 
1 62 -5 0 
1 -38 73 0 
1 -26 85 0 
1 65 -46 0 
1 -47 -79 0 
1 -68 -39 0 
1 -27 -14 0 
1 53 94 0 
1 85 -46 0 
1 39 -80 0 
1 101 -27 0 
1 -53 74 0 
1 -95 45 0 
1 42 85 0 
1 8 7 0 
1 -96 -7 0 
1 -101 21 0 
1 -6 -27 0 
1 83 -27 0 
1 -32 -85 0 
1 79 35 0 
1 -83 -84 0 
1 44 -53 0 
1 13 46 0 
1 78 -31 0 
1 -6 43 0 
